140
300
210	2
209	1
208	3
207	1
206	2
205	3
204	6
203	5
202	3
201	2
200	2
199	3
198	5
197	4
196	1
195	3
194	4
193	1
192	3
191	1
190	1
189	3
188	4
187	4
186	2
185	3
184	4
183	3
181	2
179	2
178	6
176	4
175	4
174	4
173	1
171	3
170	3
169	1
168	2
167	2
166	3
165	1
164	4
163	3
162	3
161	4
160	1
159	3
158	2
157	2
156	6
155	3
154	2
153	1
152	3
151	4
150	2
149	6
148	2
147	5
146	5
145	7
144	5
143	4
140	1
139	1
138	5
137	2
136	1
135	3
134	3
133	1
132	5
131	6
130	2
129	2
128	1
127	2
125	3
124	3
123	4
122	2
121	2
120	2
119	1
118	2
117	3
116	1
115	2
114	6
113	1
112	3
111	4
110	3
109	4
108	2
107	4
106	5
105	4
103	3
102	3
101	2
100	5
99	2
98	3
97	2
96	6
95	1
94	4
93	7
92	5
91	2
90	3
88	6
87	2
86	2
85	1
84	4
83	1
82	3
81	2
80	2
79	2
78	3
77	1
75	3
74	2
73	1
72	4
71	3
70	2
69	5
68	2
67	1
66	1
65	2
64	1
63	2
62	2
60	2
